StudentsNr = 10;
InstructorsNr = 64;
DaysNr = 2;
SlotsPerDay = 15;
AvailabilitySlotsLenght = 5;
RoomNr = 2;
ProgrammNr = 1;
DegreeNr = 2;
RolesNr = 0;
CoursesNr = 8;
InstructorsProgramm = [{1}, {1}, {1}, {1}, {1}, {1}, {1}, {1}, {1}, {1}, {1}, {1}, {1}, {1}, {1}, {1}, {1}, {1}, {1}, {1}, {1}, {1}, {1}, {1}, {1}, {1}, {1}, {1}, {1}, {1}, {1}, {1}, {1}, {1}, {1}, {1}, {1}, {1}, {1}, {1}, {1}, {1}, {1}, {1}, {1}, {1}, {1}, {1}, {1}, {1}, {1}, {1}, {1}, {1}, {1}, {1}, {1}, {1}, {1}, {1}, {1}, {1}, {1}, {1}];
InstructorRolesPerProgramm = array2d(1..ProgrammNr,{},[]);
InstructorsAvailability = [|0, 0, 1, 1, 1, 1, |1, 0, 1, 1, 1, 1, |0, 1, 1, 1, 1, 1, |1, 1, 1, 1, 1, 0, |0, 1, 1, 1, 1, 1, |1, 1, 1, 0, 0, 1, |1, 0, 0, 0, 1, 1, |1, 0, 1, 0, 0, 0, |1, 1, 0, 0, 1, 1, |0, 1, 0, 1, 0, 1, |1, 1, 1, 1, 1, 1, |0, 0, 1, 1, 1, 1, |0, 1, 1, 1, 1, 1, |0, 0, 0, 1, 1, 0, |0, 0, 0, 1, 1, 1, |1, 0, 0, 1, 1, 1, |1, 0, 0, 1, 1, 0, |0, 0, 0, 0, 1, 1, |0, 1, 1, 1, 1, 1, |1, 1, 1, 1, 1, 0, |1, 1, 1, 1, 1, 1, |0, 1, 1, 1, 1, 1, |1, 1, 1, 1, 1, 1, |1, 1, 1, 1, 1, 1, |0, 1, 1, 1, 1, 0, |1, 0, 0, 0, 1, 1, |0, 1, 1, 0, 1, 1, |1, 1, 1, 1, 1, 1, |1, 1, 1, 1, 1, 1, |1, 0, 0, 1, 1, 1, |0, 1, 1, 1, 1, 0, |1, 1, 1, 1, 1, 1, |1, 0, 0, 0, 1, 1, |1, 0, 0, 1, 1, 1, |1, 1, 0, 0, 1, 1, |1, 1, 1, 0, 1, 1, |0, 0, 0, 1, 0, 0, |0, 1, 1, 0, 1, 1, |0, 1, 1, 1, 1, 1, |0, 1, 1, 1, 1, 1, |1, 1, 1, 1, 0, 1, |1, 1, 1, 1, 1, 1, |1, 1, 1, 0, 1, 1, |1, 1, 1, 1, 1, 1, |0, 1, 1, 1, 1, 1, |1, 1, 1, 1, 1, 0, |1, 1, 1, 1, 1, 1, |1, 1, 1, 1, 1, 1, |1, 1, 1, 1, 1, 1, |0, 1, 1, 1, 1, 1, |1, 1, 0, 1, 1, 0, |0, 0, 1, 1, 1, 1, |1, 1, 1, 0, 1, 1, |0, 1, 1, 1, 1, 1, |1, 1, 1, 1, 0, 1, |1, 1, 1, 1, 1, 1, |1, 1, 1, 1, 1, 1, |1, 0, 0, 0, 1, 1, |0, 0, 0, 1, 1, 1, |0, 1, 1, 1, 1, 1, |1, 1, 1, 1, 1, 1, |0, 0, 1, 0, 1, 1, |0, 0, 1, 1, 0, 0, |0, 1, 1, 1, 1, 1|];
StudentsProgramm = [1, 1, 1, 1, 1, 1, 1, 1, 1, 1];
StudentsDegree = [2, 2, 1, 1, 1, 2, 2, 2, 1, 1];
StudentsSupervisorId = [17, 2, 37, 28, 4, 62, 31, 49, 6, 37];
StudentsCourseIds = [{2, 4, 5, 6, 7, 8}, {1, 2, 4, 5, 6, 7}, {}, {}, {}, {1, 2, 3, 4, 5, 8}, {1, 2, 3, 4, 5, 6}, {1, 3, 4, 5, 6, 8}, {}, {}];
StudentsAvailability = [|1, 1, 1, 1, 1, 0, |0, 1, 1, 1, 1, 1, |1, 1, 1, 1, 1, 1, |0, 1, 1, 1, 1, 1, |1, 1, 1, 1, 1, 1, |0, 1, 1, 1, 1, 1, |1, 1, 1, 1, 1, 0, |1, 1, 1, 1, 1, 1, |0, 1, 1, 1, 1, 1, |0, 0, 1, 1, 1, 1|];
TheoryticalMinCard = [6, 6, 1, 1, 1, 6, 6, 6, 1, 1];
CoursesInstructorIds = [{1, 3, 10, 11, 13, 14, 16, 21, 23, 25, 26, 28, 31, 32, 33, 34, 35, 36, 38, 39, 41, 42, 44, 45, 46, 47, 48, 49, 50, 51, 52, 56, 57, 58, 59, 62, 63}, {2, 15, 16, 24, 29, 33, 36, 46, 48, 57, 59, 60, 63}, {54}, {2, 4, 5, 6, 7, 9, 14, 15, 16, 18, 19, 20, 22, 24, 25, 29, 30, 31, 33, 34, 35, 36, 37, 38, 41, 42, 44, 47, 56, 58, 59, 62, 63}, {1, 2, 6, 13, 15, 17, 18, 20, 21, 24, 27, 28, 29, 34, 36, 37, 38, 41, 42, 43, 45, 46, 47, 52, 53, 55, 57, 63}, {7, 19, 34, 55, 60}, {1, 3, 7, 10, 15, 18, 23, 26, 28, 30, 31, 33, 42, 43, 45, 54, 57, 58, 61, 62, 64}, {1, 3, 6, 8, 9, 13, 14, 15, 20, 21, 26, 27, 29, 30, 33, 34, 35, 38, 39, 42, 44, 45, 48, 50, 52, 53, 54, 55, 56, 57, 58, 60, 61, 62, 63, 64}];
RolesDemands = [];
RolesContinuity = [];
ExamLen = [2, 2, 1, 1, 1, 2, 2, 2, 1, 1];
LunchTsMinLen = 1;
LunchStarts = [4..8, 21..25];
SupervisorAvailable = 0;
OptimalLunchLenght = [3, 1];
OptimalStartTs = [1, 0];
OptimalFinishTs = [1, 15];
MinimizeRooms = 100;
RolesSoftContinuity = array2d(1..2,{},[]);
SameDegreeInRoom = 20;
Mergeability = 1;
